peakDumbCharging = 18500; 
Machine = anon_enum(16); 
machineSpeed = [3700,3700,3700,3700,3700,3700,3700,3700,3700,3700,3700,3700,3700,3700,3700,3700]; 
machineLoad = [3700,3700,3700,3700,3700,3700,3700,3700,3700,3700,3700,3700,3700,3700,3700,3700]; 
Car = anon_enum(37); 
demandCar = [4000,5120,3720,8280,29560,1320,2960,8440,13560,120,4200,8960,18080,3440,1160,3200,1640,3040,4880,33440,1560,9280,3440,5280,12840,6240,4720,1600,8160,1480,3200,4000,17120,12880,200,2600,11040]; 
arrivalCar = [73,68,65,63,59,58,56,55,55,55,52,50,49,48,47,47,46,45,44,42,42,41,41,38,37,37,37,36,34,34,33,33,31,29,28,26,23]; 
departureCar = [75,72,68,66,71,59,58,59,61,56,55,56,55,54,50,49,48,47,48,53,44,46,44,41,44,40,41,38,40,35,35,36,38,34,30,28,61]; 
